This is Ipopt version 3.14.16, running with linear solver MUMPS 5.7.3.

Number of nonzeros in equality constraint Jacobian...:        0
Number of nonzeros in inequality constraint Jacobian.:      289
Number of nonzeros in Lagrangian Hessian.............:        0

Total number of variables............................:       17
                     variables with only lower bounds:        0
                variables with lower and upper bounds:       17
                     variables with only upper bounds:        0
Total number of equality constraints.................:        0
Total number of inequality constraints...............:       17
        inequality constraints with only lower bounds:        0
   inequality constraints with lower and upper bounds:        0
        inequality constraints with only upper bounds:       17

iter    objective    inf_pr   inf_du lg(mu)  ||d||  lg(rg) alpha_du alpha_pr  ls
   0  2.3305487e+00 4.76e-01 1.72e+00   0.0 0.00e+00    -  0.00e+00 0.00e+00   0
   1  1.8446480e+00 3.20e-01 1.01e+00  -1.8 3.85e+00    -  2.23e-01 3.27e-01f  1
   2  1.5129617e+00 1.22e-01 2.91e+00  -1.1 3.04e+00    -  9.98e-01 5.09e-01f  1
   3  1.1809089e+00 0.00e+00 1.87e+00  -1.1 3.42e+00    -  9.85e-01 1.00e+00f  1
   4  8.9422844e-01 0.00e+00 3.58e-01  -1.3 2.90e+00    -  9.65e-01 1.00e+00h  1
   5  5.3650755e-01 0.00e+00 1.02e+00  -1.8 3.80e+00    -  9.29e-01 1.00e+00f  1
   6  5.1140367e-01 0.00e+00 6.79e-01  -1.4 4.69e-01    -  1.00e+00 9.19e-01h  1
   7  4.2430897e-01 0.00e+00 3.88e-01  -1.7 1.07e+00    -  1.00e+00 1.00e+00f  1
   8  2.5769245e-01 0.00e+00 1.38e+00  -2.2 3.92e+00    -  9.89e-01 1.00e+00f  1
   9  3.4321671e-01 0.00e+00 3.10e-01  -1.9 2.55e+00    -  1.00e+00 1.00e+00h  1
iter    objective    inf_pr   inf_du lg(mu)  ||d||  lg(rg) alpha_du alpha_pr  ls
  10  2.4789269e-01 0.00e+00 5.45e-01  -2.3 2.26e+00    -  1.00e+00 1.00e+00h  1
  11  2.3783145e-01 0.00e+00 7.62e-01  -2.4 1.64e+00    -  9.98e-01 4.86e-01h  1
  12  1.9296475e-01 0.00e+00 1.93e-01  -2.5 7.75e-01    -  1.00e+00 1.00e+00f  1
  13  1.5573485e-01 0.00e+00 1.97e-01  -2.9 1.05e+00    -  1.00e+00 1.00e+00h  1
  14  1.4355686e-01 0.00e+00 2.56e-01  -3.1 2.14e+00    -  1.00e+00 1.19e-01h  1
  15  8.4484220e-02 0.00e+00 4.62e-01  -4.0 9.83e-01    -  1.00e+00 7.02e-01h  1
  16  9.1215436e-02 0.00e+00 2.60e-01  -2.8 1.45e+00    -  1.00e+00 7.92e-01f  1
  17  8.5337124e-02 0.00e+00 1.08e-01  -2.9 5.59e-01    -  1.00e+00 1.00e+00h  1
  18  5.9948943e-02 0.00e+00 7.65e-02  -3.7 7.72e-01    -  1.00e+00 9.00e-01h  1
  19  4.6185358e-02 0.00e+00 1.12e-01  -5.1 4.69e-01    -  1.00e+00 1.00e+00h  1
iter    objective    inf_pr   inf_du lg(mu)  ||d||  lg(rg) alpha_du alpha_pr  ls
  20  4.8712036e-02 0.00e+00 1.02e-01  -3.8 1.04e-01    -  1.00e+00 1.00e+00h  1
  21  4.7275799e-02 0.00e+00 6.05e-03  -4.1 6.03e-02    -  1.00e+00 9.83e-01h  1
  22  4.4505251e-02 0.00e+00 1.12e-03  -5.9 1.17e-01    -  1.00e+00 1.00e+00h  1
  23  4.4354964e-02 0.00e+00 2.05e-05  -7.6 6.01e-03    -  1.00e+00 9.91e-01h  1

Number of Iterations....: 23

                                   (scaled)                 (unscaled)
Objective...............:   4.4354964397616971e-02    4.4354964397616971e-02
Dual infeasibility......:   2.0503532219055204e-05    2.0503532219055204e-05
Constraint violation....:   0.0000000000000000e+00    0.0000000000000000e+00
Variable bound violation:   0.0000000000000000e+00    0.0000000000000000e+00
Complementarity.........:   1.1449484920900420e-07    1.1449484920900420e-07
Overall NLP error.......:   2.0503532219055204e-05    2.0503532219055204e-05


Number of objective function evaluations             = 24
Number of objective gradient evaluations             = 24
Number of equality constraint evaluations            = 0
Number of inequality constraint evaluations          = 24
Number of equality constraint Jacobian evaluations   = 0
Number of inequality constraint Jacobian evaluations = 24
Number of Lagrangian Hessian evaluations             = 0
Total seconds in IPOPT                               = 13.500

EXIT: Optimal Solution Found.
